125 10
1
53 93 25 74 19 91 80 23 22 0 45 37 55 98 79 69 6 45 22 2 73 86 94 84 53 61 42 21 68 58 9 89 66 44 66 78 26 87 37 65 68 53 13 43 40 1 44 99 6 7 40 35 32 32 53 96 34 57 34 87 75 76 85 18 67 51 22 95 94 23 61 88 49 81 21 87 15 3 20 90 1 69 50 5 66 60 37 27 16 75 51 38 85 2 66 27 44 3 58 33 86 35 79 35 26 37 86 58 2 51 83 37 39 85 84 56 9 56 36 55 21 60 2 93 90
629 641 753 636 800 573 414 537 674 836
0 0 0 0 0 0 0 0 0 0 0 0 0 0 54 0 0 0 0 12 0 0 58 0 0 0 35 0 0 0 0 0 0 0 0 0 93 0 0 10 0 94 81 0 0 86 0 0 0 0 0 0 0 0 0 0 0 0 0 0 0 0 0 0 0 0 0 68 0 0 0 0 0 21 0 0 17 0 0 0 29 0 56 34 0 0 0 0 0 68 0 0 0 0 0 0 0 0 0 0 54 0 0 0 0 7 51 63 64 0 0 49 0 0 0 0 0 0 0 0 0 0 0 0 0
0 0 0 54 0 95 0 0 95 0 0 0 14 0 0 0 0 0 0 0 0 76 0 0 0 0 73 0 0 0 0 0 0 0 0 0 0 0 0 0 0 0 0 0 0 0 96 0 0 12 0 0 0 94 0 0 0 0 0 0 0 0 0 0 0 0 96 0 0 0 0 0 0 0 0 83 0 0 0 27 0 0 0 76 9 0 0 0 0 0 0 0 0 0 0 0 0 0 0 0 0 25 0 0 0 0 0 66 0 0 0 0 0 0 0 79 0 0 0 0 0 0 0 44 0
0 0 0 0 0 0 0 0 0 6 0 0 6 5 0 0 0 0 0 0 0 0 0 0 0 0 0 0 43 0 0 0 0 0 0 0 97 0 0 29 0 0 76 0 48 0 0 0 0 0 0 0 0 0 0 0 13 0 0 0 0 0 94 0 0 0 0 0 0 0 0 0 17 0 0 0 32 60 0 0 0 0 0 0 0 0 0 0 0 86 21 99 0 0 61 0 0 16 0 0 0 0 48 50 0 0 0 0 0 0 0 88 0 0 0 0 55 84 0 97 0 0 0 86 0
0 0 0 0 39 0 75 0 0 0 0 0 0 0 0 36 0 0 0 0 0 0 0 4 82 90 0 0 0 0 0 0 0 0 0 0 0 0 0 0 0 0 0 96 0 0 0 0 0 92 0 0 0 0 0 0 0 0 0 0 0 26 0 0 0 0 0 0 0 0 19 0 83 0 0 71 0 0 0 0 0 0 0 0 0 0 0 0 0 0 0 0 0 0 0 0 0 0 0 0 0 86 0 0 0 0 0 98 80 0 37 0 0 0 0 0 0 0 0 0 0 0 0 0 96
0 0 0 49 26 0 87 0 0 0 0 0 8 0 92 0 0 0 0 0 0 0 24 0 0 0 0 28 0 0 0 0 10 0 0 0 69 0 0 0 77 0 83 10 0 41 0 13 0 0 0 0 0 77 0 0 0 0 0 56 1 0 0 39 0 0 0 59 0 0 0 28 0 0 0 14 67 61 0 0 77 0 0 0 0 0 0 0 0 34 57 0 5 94 0 0 0 0 0 0 0 0 11 0 0 0 0 36 0 0 0 0 0 0 0 0 0 0 0 0 0 0 0 64 0
0 0 0 0 0 0 0 0 0 0 89 57 0 0 0 0 0 0 0 66 0 0 0 0 0 30 0 0 0 0 0 0 0 0 0 0 0 0 0 0 0 0 0 0 0 0 0 0 35 0 0 0 0 0 0 0 0 0 0 0 16 0 0 80 0 92 0 0 0 0 0 0 64 0 0 0 0 0 70 0 93 0 0 0 0 7 99 36 0 0 0 0 0 15 0 0 0 10 0 0 0 0 0 22 63 0 0 13 20 0 0 0 0 0 0 0 0 0 0 0 0 0 6 0 0
0 0 0 0 0 0 0 0 0 49 0 0 0 0 0 0 0 0 0 0 0 0 0 0 0 0 0 0 0 66 0 0 0 0 0 0 33 0 0 0 8 0 0 0 62 0 25 0 0 0 77 0 0 0 0 0 0 0 0 0 0 0 0 0 0 0 0 73 0 0 0 0 0 0 41 0 0 0 0 0 0 0 0 0 0 0 0 0 0 16 8 0 0 0 0 0 0 97 0 0 0 0 0 0 0 0 0 0 0 0 74 0 67 0 0 0 0 0 0 0 0 0 0 0 0
0 0 0 0 0 60 0 0 76 36 0 0 0 0 0 0 0 0 65 0 0 0 0 0 0 0 0 0 0 0 0 0 0 21 0 27 0 0 0 0 0 0 0 0 0 0 0 0 0 36 0 91 4 0 0 0 0 0 56 0 2 0 0 0 89 0 0 0 0 0 0 0 0 0 0 0 30 0 0 0 0 0 0 0 0 0 0 0 0 0 0 0 0 58 13 0 0 0 43 0 0 59 0 0 0 65 0 0 81 0 6 0 0 0 0 4 0 0 0 0 0 0 0 0 0
26 0 0 0 0 0 0 0 32 0 0 0 0 0 0 0 0 0 0 0 0 34 0 0 0 0 0 0 0 10 0 0 0 0 48 85 0 0 0 0 0 0 0 0 0 0 0 72 0 0 0 0 84 0 25 0 0 0 0 0 0 0 0 0 28 0 0 0 0 70 0 6 0 0 0 99 0 0 0 0 85 0 84 19 0 77 77 0 0 82 0 1 0 3 0 0 0 0 0 0 0 0 0 0 0 0 0 0 0 0 0 0 30 0 0 0 0 0 0 0 99 0 0 0 0
13 64 0 64 39 0 0 87 0 0 0 0 0 0 12 0 0 0 27 0 0 0 88 0 0 0 0 0 0 41 0 0 0 0 0 63 0 0 0 0 0 0 0 0 0 0 0 0 0 0 97 0 0 64 0 0 0 0 0 0 18 0 0 0 0 0 0 64 8 0 95 0 0 0 0 86 59 0 0 0 0 0 0 0 0 0 0 0 0 0 0 33 0 87 0 0 0 0 62 0 0 84 0 0 0 0 9 0 0 19 55 91 0 0 6 38 0 0 0 0 0 17 0 0 0
0 0 0 0 0 0 0 0 0 0 0 0 0 0 7 0 0 0 0 2 0 0 10 0 0 0 15 0 0 0 0 0 0 0 0 0 66 0 0 6 0 35 52 0 0 52 0 0 0 0 0 0 0 0 0 0 0 0 0 0 0 0 0 0 0 0 0 60 0 0 0 0 0 2 0 0 10 0 0 0 9 0 45 0 0 0 0 0 0 57 0 0 0 0 0 0 0 0 0 0 21 0 0 0 0 6 43 14 6 0 0 33 0 0 0 0 0 0 0 0 0 0 0 0 0
0 0 0 22 0 86 0 0 67 0 0 0 9 0 0 0 0 0 0 0 0 2 0 0 0 0 46 0 0 0 0 0 0 0 0 0 0 0 0 0 0 0 0 0 0 0 27 0 0 3 0 0 0 57 0 0 0 0 0 0 0 0 0 0 0 0 9 0 0 0 0 0 0 0 0 3 0 0 0 25 0 0 0 58 4 0 0 0 0 0 0 0 0 0 0 0 0 0 0 0 0 19 0 0 0 0 0 55 0 0 0 0 0 0 0 39 0 0 0 0 0 0 0 31 0
0 0 0 0 0 0 0 0 0 1 0 0 1 1 0 0 0 0 0 0 0 0 0 0 0 0 0 0 42 0 0 0 0 0 0 0 61 0 0 21 0 0 18 0 42 0 0 0 0 0 0 0 0 0 0 0 4 0 0 0 0 0 68 0 0 0 0 0 0 0 0 0 14 0 0 0 18 25 0 0 0 0 0 0 0 0 0 0 0 53 6 82 0 0 11 0 0 2 0 0 0 0 34 27 0 0 0 0 0 0 0 30 0 0 0 0 51 28 0 30 0 0 0 75 0
0 0 0 0 25 0 46 0 0 0 0 0 0 0 0 2 0 0 0 0 0 0 0 2 5 73 0 0 0 0 0 0 0 0 0 0 0 0 0 0 0 0 0 77 0 0 0 0 0 81 0 0 0 0 0 0 0 0 0 0 0 6 0 0 0 0 0 0 0 0 0 0 36 0 0 20 0 0 0 0 0 0 0 0 0 0 0 0 0 0 0 0 0 0 0 0 0 0 0 0 0 58 0 0 0 0 0 1 4 0 5 0 0 0 0 0 0 0 0 0 0 0 0 0 31
0 0 0 24 19 0 63 0 0 0 0 0 0 0 65 0 0 0 0 0 0 0 22 0 0 0 0 10 0 0 0 0 8 0 0 0 54 0 0 0 69 0 64 1 0 29 0 12 0 0 0 0 0 71 0 0 0 0 0 33 0 0 0 23 0 0 0 54 0 0 0 16 0 0 0 6 11 39 0 0 40 0 0 0 0 0 0 0 0 13 43 0 3 58 0 0 0 0 0 0 0 0 9 0 0 0 0 16 0 0 0 0 0 0 0 0 0 0 0 0 0 0 0 2 0
0 0 0 0 0 0 0 0 0 0 33 9 0 0 0 0 0 0 0 54 0 0 0 0 0 16 0 0 0 0 0 0 0 0 0 0 0 0 0 0 0 0 0 0 0 0 0 0 17 0 0 0 0 0 0 0 0 0 0 0 11 0 0 60 0 4 0 0 0 0 0 0 62 0 0 0 0 0 18 0 48 0 0 0 0 1 95 30 0 0 0 0 0 8 0 0 0 2 0 0 0 0 0 14 45 0 0 6 3 0 0 0 0 0 0 0 0 0 0 0 0 0 3 0 0
0 0 0 0 0 0 0 0 0 40 0 0 0 0 0 0 0 0 0 0 0 0 0 0 0 0 0 0 0 38 0 0 0 0 0 0 13 0 0 0 7 0 0 0 35 0 3 0 0 0 9 0 0 0 0 0 0 0 0 0 0 0 0 0 0 0 0 66 0 0 0 0 0 0 30 0 0 0 0 0 0 0 0 0 0 0 0 0 0 10 7 0 0 0 0 0 0 4 0 0 0 0 0 0 0 0 0 0 0 0 56 0 66 0 0 0 0 0 0 0 0 0 0 0 0
0 0 0 0 0 55 0 0 47 28 0 0 0 0 0 0 0 0 52 0 0 0 0 0 0 0 0 0 0 0 0 0 0 14 0 26 0 0 0 0 0 0 0 0 0 0 0 0 0 31 0 6 0 0 0 0 0 0 6 0 1 0 0 0 76 0 0 0 0 0 0 0 0 0 0 0 16 0 0 0 0 0 0 0 0 0 0 0 0 0 0 0 0 55 3 0 0 0 36 0 0 0 0 0 0 27 0 0 38 0 3 0 0 0 0 0 0 0 0 0 0 0 0 0 0
14 0 0 0 0 0 0 0 27 0 0 0 0 0 0 0 0 0 0 0 0 14 0 0 0 0 0 0 0 8 0 0 0 0 0 79 0 0 0 0 0 0 0 0 0 0 0 60 0 0 0 0 30 0 13 0 0 0 0 0 0 0 0 0 20 0 0 0 0 44 0 2 0 0 0 20 0 0 0 0 29 0 10 14 0 62 63 0 0 75 0 0 0 0 0 0 0 0 0 0 0 0 0 0 0 0 0 0 0 0 0 0 8 0 0 0 0 0 0 0 28 0 0 0 0
5 0 0 10 25 0 0 77 0 0 0 0 0 0 1 0 0 0 1 0 0 0 51 0 0 0 0 0 0 32 0 0 0 0 0 58 0 0 0 0 0 0 0 0 0 0 0 0 0 0 35 0 0 62 0 0 0 0 0 0 12 0 0 0 0 0 0 12 1 0 55 0 0 0 0 69 20 0 0 0 0 0 0 0 0 0 0 0 0 0 0 32 0 7 0 0 0 0 49 0 0 16 0 0 0 0 0 0 0 17 2 47 0 0 4 2 0 0 0 0 0 13 0 0 0
